86 1632
2 3 4 7 8 9 12 13 14 16 17 18 19 21 24 27 28 29 30 31 32 33 34 36 38 40 43 45 46 53 54 58 59 67 70 74 77 78 79 81 82 84 85
3 4 5 6 7 8 9 10 11 13 15 16 19 20 21 22 27 29 30 32 33 34 35 36 37 39 42 44 45 46 49 50 63 66 67 69 70 71 73 74 77 80 81 82 84
0 6 7 8 9 11 12 14 15 16 19 21 22 23 26 27 28 29 33 34 36 41 46 51 53 58 59 60 61 62 64 65 71 73 74 76 80 81 83 84
0 1 7 8 9 13 14 16 17 18 20 21 22 26 27 30 32 33 36 38 43 45 48 49 50 52 54 55 56 57 59 61 63 67 68 71 73 75 76 77 78 81 82 84
0 1 5 6 8 9 11 15 17 18 19 21 22 23 24 28 30 31 34 38 40 42 44 46 47 48 49 50 51 53 56 57 58 60 61 63 64 67 69 71 72 76 78 81 83 84 85
1 4 6 7 8 11 16 18 21 22 24 25 26 29 30 35 41 43 47 54 55 58 60 62 65 67 68 71 72 74 79 81 82 85
1 2 4 5 7 10 14 15 16 21 25 32 35 36 38 41 43 44 45 46 48 49 53 57 59 62 63 64 65 69 72 73 74 78 80 85
0 1 2 3 5 6 10 11 12 14 15 21 22 23 24 26 29 33 34 35 37 39 40 41 44 45 47 51 52 54 56 58 59 61 62 63 66 68 70 72 73 74 75 77 79 80 83 84
0 1 2 3 4 5 9 10 12 17 18 25 30 32 35 37 41 43 48 52 54 57 58 60 65 66 67 73 78 79 83 84 85
0 1 2 3 4 8 10 12 13 14 16 22 23 25 28 30 32 35 41 42 44 46 47 48 53 54 56 57 58 59 60 61 62 67 68 69 73 74 75 82 85
1 6 7 8 9 13 14 16 17 19 20 22 25 29 31 33 34 35 36 37 39 42 43 49 50 54 55 56 58 59 60 67 68 69 70 74 75 80 81 83
1 2 4 5 7 12 16 23 28 41 42 47 50 53 55 57 61 62 63 65 66 69 71 74 76 78 79 85
0 2 7 8 9 11 14 15 16 24 25 29 32 35 37 40 41 42 43 44 50 51 53 56 60 63 65 66 68 69 75 79 80 84
0 1 3 9 10 14 15 17 19 23 24 25 26 27 28 29 30 32 33 36 38 41 51 56 57 59 60 64 69 70 71 73 76 77 78 80 81
0 2 3 6 7 9 10 12 13 17 18 20 27 28 30 31 32 33 36 38 39 45 50 54 56 62 65 68 72 73 75 78 79 80 81 83 84
1 2 4 6 7 12 13 18 21 22 26 28 29 30 31 35 37 38 39 42 46 48 54 55 56 58 59 60 61 62 64 65 66 68 69 72 75 78 79 80 82 83 84
0 1 2 3 5 6 9 10 11 12 18 19 22 30 31 33 36 39 42 45 46 47 52 53 55 56 57 61 64 65 66 67 69 72 78 80 81 83 84 85
0 3 4 8 10 13 14 18 23 24 26 27 29 31 35 36 38 39 42 43 45 46 52 53 54 55 60 63 66 67 70 72 73 75 78 80 81 83 84 85
0 3 4 5 8 14 15 16 17 20 22 24 30 31 34 36 38 39 40 44 49 51 54 55 56 58 61 64 65 68 69 71 72 73 77 78 81 82
0 1 2 4 10 13 16 20 22 24 28 29 30 31 34 36 38 39 41 45 47 51 52 53 55 56 57 61 65 67 68 70 71 73 83 84 85
1 3 10 14 18 19 23 24 29 30 38 45 47 49 50 52 53 57 60 62 68 71 72 79 80 81 83 85
0 1 2 3 4 5 6 7 15 22 24 27 28 33 37 38 41 42 46 48 49 50 51 55 56 58 59 60 62 66 67 74 80 83
1 2 3 4 5 7 9 10 15 16 18 19 21 24 25 26 27 28 33 34 35 38 43 44 45 47 48 49 52 53 54 55 57 59 60 62 70 72 76 79 80 83
2 4 7 9 11 13 17 20 27 30 31 34 35 41 43 46 47 50 51 52 53 55 59 60 68 71 73 79 83 85
0 4 5 7 12 13 17 18 19 20 21 22 25 28 29 31 32 34 35 37 39 41 42 43 44 48 49 50 51 54 58 64 65 66 68 71 72 73 75 79 82 84
5 6 8 9 10 12 13 22 24 26 27 28 34 35 37 38 41 42 45 48 49 50 55 56 59 61 62 63 64 65 73 74 76 80 81 82 84
2 3 5 7 13 15 17 22 25 30 32 35 40 47 49 50 53 54 55 56 66 71 74 76 77 78 79 82 84 85
0 1 2 3 13 14 17 21 22 23 25 32 34 36 37 39 40 42 43 44 48 49 52 53 54 55 57 59 60 64 65 67 68 69 71 75 78 84 85
0 2 4 9 11 13 14 15 19 21 22 24 25 29 32 33 34 36 41 42 45 46 47 49 50 51 52 55 56 57 58 59 63 64 65 67 68 71 75 77 78 80 81 82 83 84 85
0 1 2 5 7 10 12 13 15 17 19 20 24 28 30 33 35 36 37 38 40 41 46 47 48 51 52 55 59 61 62 65 67 70 73 80 82 83 84 85
0 1 3 4 5 8 9 13 14 15 16 18 19 20 23 26 29 33 35 42 44 46 49 50 51 53 54 55 57 58 59 61 63 72 76 77 82
0 4 10 14 15 16 17 18 19 23 24 36 38 39 41 42 44 45 49 58 63 64 66 68 70 71 75 79 80 81 82
0 1 3 6 8 9 12 13 14 24 26 27 28 33 40 41 43 51 52 53 54 55 56 60 62 66 69 71 79 80 81 82 83 84 85
0 1 2 3 7 10 13 14 16 21 22 28 29 30 32 38 41 45 48 50 56 58 60 62 64 68 72 73 74 75 76 79 81 85
0 1 2 4 7 10 18 19 22 23 24 25 27 28 37 38 39 41 48 50 54 55 57 62 63 64 65 68 69 73 75 79 80 81
1 5 6 7 8 9 10 12 15 17 22 23 24 25 26 29 30 36 39 46 48 49 50 55 59 61 63 65 67 72 74 75 78 84 85
0 1 2 3 6 10 13 14 16 17 18 19 27 28 29 31 35 37 41 43 44 45 46 48 51 52 54 56 58 60 65 66 68 69 70 71 75 76 79 83 85
1 7 8 10 12 15 21 24 25 27 29 34 36 43 44 45 48 51 52 53 54 55 58 60 61 63 65 69 72 75 76 81
0 3 4 6 13 14 15 17 18 19 20 21 22 25 29 31 33 34 42 51 54 58 60 62 65 66 69 70 74 78 79 82
1 7 10 14 15 16 17 18 19 24 27 31 34 35 40 41 43 44 45 47 48 49 51 52 55 56 57 60 63 64 67 68 70 73 78 80
0 4 7 12 18 26 27 29 32 39 41 45 48 50 51 52 53 54 56 58 60 62 63 70 71 72 73 74 79 80 81
2 5 6 7 8 9 11 12 13 19 21 23 24 25 28 29 31 32 33 34 36 39 40 42 46 47 49 51 53 54 56 59 60 61 62 64 65 67 70 71 73 78 81 85
1 4 9 10 11 12 15 16 17 21 24 25 27 28 30 31 38 41 43 45 46 47 51 55 60 61 62 64 66 68 70 72 75 77 78 82 84
0 3 5 6 8 10 12 17 22 23 24 27 32 36 37 39 42 46 47 50 52 55 60 61 63 64 67 69 73 77 79 83
1 4 6 7 9 12 18 22 24 27 30 31 36 37 39 45 47 50 53 55 56 58 60 61 63 65 66 67 68 69 70 72 73 74 78 80 81 83 84 85
0 1 3 6 7 14 16 17 19 20 22 25 28 31 33 36 37 39 40 42 44 47 48 50 54 59 60 63 64 67 69 71 73 74 77 78 79 83 85
0 1 2 4 6 9 15 16 17 21 23 28 29 30 35 36 41 42 43 47 50 51 53 56 57 58 65 68 73 74 76 77 78 79 82 84
4 5 7 9 11 16 19 20 22 23 26 28 29 39 41 42 43 44 45 46 48 50 51 55 59 60 61 62 63 64 66 68 72 73 74 76 77 78 80 83 84 85
3 4 6 8 9 15 21 22 24 25 27 29 33 34 35 36 37 39 40 45 47 53 56 57 60 61 63 64 66 67 68 70 72 74 75 77
1 3 4 6 10 18 20 21 22 24 25 26 27 28 30 31 35 39 41 50 51 52 54 55 58 64 66 70 74 77 79 83
1 3 4 10 11 12 14 20 21 23 24 25 26 28 30 33 34 35 40 43 44 45 46 47 49 52 54 55 57 62 64 65 66 68 72 73 74 75 77 80 81 82
2 4 7 12 13 18 19 21 23 24 28 29 30 32 36 37 38 39 40 41 42 46 47 49 56 57 61 62 63 64 70 73 74 76 78 83
3 7 8 16 17 19 20 22 23 27 28 29 32 36 37 39 40 43 49 50 55 60 63 64 65 69 70 71 73 75 76
0 2 4 6 9 11 12 16 17 19 20 22 23 26 27 30 32 37 40 41 44 46 48 54 56 57 58 61 62 65 66 67 71 73 76 79 80 83 84 85
0 3 5 7 8 9 10 14 15 17 18 22 24 26 27 30 32 34 36 37 38 40 41 45 49 50 53 58 60 61 62 64 68 71 74 75 80 85
3 5 10 11 15 16 17 18 19 21 22 23 25 26 27 28 29 30 32 34 35 37 39 42 43 44 47 49 50 52 56 57 58 59 63 64 65 68 69 70 71 72 73 74 75 77 79 84 85
3 4 7 9 10 12 13 14 15 16 18 19 21 25 26 28 32 33 36 39 40 41 44 46 48 51 53 55 57 58 59 60 61 62 63 64 65 67 68 69 72 73 79 81 85
3 4 6 8 9 11 13 16 19 20 22 27 28 30 34 39 46 48 50 51 53 55 56 58 63 65 74 76 78 79 80 81 83 84
0 2 4 5 7 8 9 10 15 18 21 24 28 30 31 33 36 37 38 40 44 46 49 53 54 55 56 57 59 61 64 65 67 70 71 73 76 80 82 83
0 2 3 6 7 9 10 13 15 21 22 23 25 27 28 29 30 35 41 45 47 55 56 58 62 63 64 65 66 67 68 70 71 74 75 76 79 80 83 84 85
2 4 5 8 9 10 12 13 15 17 20 21 22 23 27 32 33 36 37 38 39 40 41 42 43 44 45 47 48 52 54 56 63 64 65 68 69 70 72 73 75 80 81 82 84
2 3 4 7 9 11 15 16 18 19 25 29 30 35 37 41 42 43 44 47 48 51 53 54 56 58 62 64 65 66 69 72 76 79 82 84 85
2 5 6 7 9 11 14 15 20 21 22 25 29 32 33 34 38 40 41 42 47 50 51 53 54 56 59 61 63 64 65 66 69 70 72 78 79
1 3 4 6 7 11 12 17 25 28 30 31 34 35 37 39 40 43 44 45 47 48 51 52 55 56 57 59 60 62 65 66 68 73 76 77 80 82 85
2 4 6 13 15 16 18 24 25 27 28 31 33 34 39 41 42 43 45 47 48 49 50 51 52 54 55 56 58 59 60 61 62 69 70 71 75 76 78 82 83 85
2 5 6 8 11 12 14 15 16 18 19 24 25 27 28 29 34 35 36 37 38 41 44 46 50 52 53 55 56 57 58 59 60 61 62 63 66 68 69 70 72 76 81 82
1 7 8 11 12 15 16 17 21 24 26 31 32 36 38 42 44 47 48 49 50 53 59 61 62 63 65 72 75 77 78 82 83 84 85
0 1 3 4 5 8 9 10 16 17 19 21 27 28 29 35 39 41 43 44 45 48 53 56 58 59 70 71 73 75 76 79 81 82 83 84
3 5 7 9 10 12 14 15 18 19 20 23 24 27 28 31 33 34 36 39 42 44 46 47 48 50 54 55 56 59 60 63 65 70 71 73 75 76 78 81 83 85
1 4 6 9 10 11 12 13 15 16 18 27 32 34 36 37 38 43 44 45 52 55 56 60 61 62 64 65 70 72 73 74 75 76 77 80 81 84 85
0 1 7 10 13 17 19 22 29 31 36 38 39 40 41 42 44 48 49 51 52 55 58 59 60 62 64 65 67 68 69 71 74 75 77 80 81 82 85
1 2 3 4 5 11 13 18 19 20 23 24 26 27 28 31 32 36 40 41 45 52 53 54 55 58 59 64 67 68 70 72 74 76 77 78 84
4 5 6 7 14 15 16 17 18 20 22 24 30 33 35 37 40 42 44 47 48 50 55 56 60 61 62 65 66 69 71 74 76 77 83 84 85
1 2 3 6 7 8 9 13 14 17 18 19 23 24 25 29 33 34 39 40 41 43 44 45 46 47 50 51 52 53 55 56 58 60 63 67 68 69 74 76 82 84 85
0 1 2 5 6 7 9 10 11 21 25 26 33 35 38 40 44 45 46 47 48 49 50 51 54 55 57 59 69 70 71 72 73 76 81 82 83
3 7 9 10 12 14 15 17 24 27 28 31 33 34 35 36 37 42 48 50 52 54 55 59 60 64 66 67 68 69 70 76 77 79 81
2 3 4 11 13 22 25 26 30 33 36 37 46 47 51 52 53 57 58 59 61 63 64 65 67 68 69 71 72 73 74 75 77 78 81 83 85
0 1 3 7 13 18 26 28 30 42 43 45 46 47 48 49 50 55 63 66 69 70 71 72 75 76 82 83
0 3 4 6 8 11 13 14 15 16 17 18 26 27 28 35 38 39 41 42 44 45 46 47 51 57 62 64 66 68 71 76 79 82 83
0 5 7 8 11 12 14 15 20 22 23 24 26 31 32 33 34 36 38 40 43 45 46 49 53 55 56 57 59 61 62 67 75 78 80 82 83 84 85
1 2 6 7 10 12 13 14 15 16 17 20 21 22 25 28 29 31 32 34 39 40 44 47 50 53 54 57 58 59 60 63 69 70 79 81 83 84
0 1 2 3 4 5 10 13 14 16 17 18 20 25 28 31 32 33 34 37 40 41 44 50 56 57 60 65 67 68 69 70 74 75 76 80 83
0 1 3 5 9 15 18 24 25 26 28 29 30 31 32 38 42 46 50 58 60 61 63 64 65 66 67 70 73 74 77 78 79 84 85
2 4 7 8 10 14 15 16 17 19 20 21 22 23 28 29 32 36 43 44 45 47 49 51 53 57 58 59 64 66 67 68 72 74 76 77 78 79 80 81 84 85
0 1 2 3 4 7 8 12 14 15 16 17 19 24 25 26 27 28 29 32 35 42 44 46 47 53 55 57 59 60 61 66 67 69 71 72 73 79 80 82 83
0 4 5 6 8 9 11 16 17 19 20 23 26 27 28 29 32 33 35 36 41 44 45 47 53 54 55 56 59 61 63 64 66 68 69 70 72 73 76 79 82 83
